c Result of efficient AIG-to-CNF conversion using package CNF
p cnf 498 1758
-2 3 400 406 0
-2 3 400 -421 0
2 -3 0
2 -400 0
2 -406 421 0
-3 4 262 303 362 0
3 -4 0
3 -362 0
3 -303 0
3 -262 0
4 -5 233 -258 0
4 210 233 -258 0
-4 258 0
-4 -233 0
-4 5 -210 0
-5 6 178 0
-5 6 179 -180 0
5 -6 0
5 -178 -179 0
5 -178 180 0
-6 7 41 60 93 0
6 -93 0
6 -7 0
6 -60 0
6 -41 0
-7 8 29 0
7 -8 0
7 -29 0
8 9 -21 0
-8 -9 0
-8 21 0
-9 461 10 0
9 -461 0
9 -10 0
-10 11 17 19 20 0
10 -20 0
10 -11 0
10 -19 0
10 -17 0
-11 458 459 12 14 0
11 -458 0
11 -14 0
11 -12 0
11 -459 0
-12 450 456 457 13 0
12 -13 0
12 -457 0
12 -450 0
12 -456 0
-13 454 455 460 0
13 -454 0
13 -460 0
13 -455 0
-14 451 452 453 15 0
14 -15 0
14 -453 0
14 -451 0
14 -452 0
-15 446 447 16 0
15 -16 0
15 -447 0
15 -446 0
-16 442 443 448 449 0
16 -449 0
16 -448 0
16 -442 0
16 -443 0
-17 440 444 445 18 0
17 -18 0
17 -445 0
17 -440 0
17 -444 0
-18 438 439 0
18 -438 0
18 -439 0
-19 434 441 0
19 -434 0
19 -441 0
-20 435 436 437 0
20 -435 0
20 -437 0
20 -436 0
21 462 -22 0
-21 -462 0
-21 22 0
22 463 -23 0
22 -463 -26 0
-22 -463 26 0
-22 463 23 0
23 464 -24 0
23 -464 -25 0
-23 -464 25 0
-23 464 24 0
24 465 -490 0
24 -465 -491 0
-24 -465 491 0
-24 465 490 0
25 465 -492 0
25 -465 -493 0
-25 -465 493 0
-25 465 492 0
26 464 -27 0
26 -464 -28 0
-26 -464 28 0
-26 464 27 0
27 465 -494 0
27 -465 -495 0
-27 -465 495 0
-27 465 494 0
-28 -465 497 0
-28 465 496 0
28 465 -496 0
28 -465 -497 0
29 9 -30 0
29 9 -37 0
-29 -9 0
-29 30 37 0
30 462 -31 0
-30 -462 0
-30 31 0
31 463 -32 0
31 -463 -35 0
-31 -463 35 0
-31 463 32 0
32 464 -33 0
32 -464 -34 0
-32 -464 34 0
-32 464 33 0
33 465 -491 0
33 -465 -492 0
-33 -465 492 0
-33 465 491 0
34 465 -493 0
34 -465 -494 0
-34 -465 494 0
-34 465 493 0
35 464 -36 0
35 -464 465 -497 0
-35 -464 -465 0
-35 464 36 0
-35 -464 497 0
36 465 -495 0
36 -465 -496 0
-36 -465 496 0
-36 465 495 0
37 462 -38 0
-37 -462 0
-37 38 0
38 463 -39 0
38 -463 -40 0
-38 -463 40 0
-38 463 39 0
39 464 -25 0
39 -464 -27 0
-39 -464 27 0
-39 464 25 0
40 464 -465 -497 0
40 464 465 -496 0
-40 -464 0
-40 -465 497 0
-40 465 496 0
-41 42 54 0
41 -42 0
41 -54 0
42 9 -43 0
42 9 -49 0
-42 -9 0
-42 43 49 0
43 462 -44 0
43 -462 -48 0
-43 -462 48 0
-43 462 44 0
44 -463 -32 0
44 463 -45 0
-44 463 45 0
-44 -463 32 0
45 464 -46 0
45 -464 -47 0
-45 -464 47 0
-45 464 46 0
46 465 -487 0
46 -465 -488 0
-46 -465 488 0
-46 465 487 0
47 465 -489 0
47 -465 -490 0
-47 -465 490 0
-47 465 489 0
48 463 -35 0
-48 -463 0
-48 35 0
49 462 -50 0
49 -462 -53 0
-49 -462 53 0
-49 462 50 0
50 -463 -39 0
50 463 -51 0
-50 463 51 0
-50 -463 39 0
51 -464 -24 0
51 464 -52 0
-51 464 52 0
-51 -464 24 0
52 465 -488 0
52 -465 -489 0
-52 -465 489 0
-52 465 488 0
53 463 -40 0
-53 -463 0
-53 40 0
54 9 -55 0
-54 -9 0
-54 55 0
55 462 -56 0
55 -462 -59 0
-55 -462 59 0
-55 462 56 0
56 463 -57 0
56 -463 -58 0
-56 -463 58 0
-56 463 57 0
57 -464 -33 0
57 464 -47 0
-57 464 47 0
-57 -464 33 0
58 464 -34 0
58 -464 -36 0
-58 -464 36 0
-58 464 34 0
59 463 464 465 -497 0
-59 497 0
-59 -465 0
-59 -463 0
-59 -464 0
-60 61 77 80 0
60 -61 0
60 -77 0
60 -80 0
-61 -10 0
-61 -461 69 0
-61 62 69 0
61 10 -69 0
61 461 10 -62 0
-62 462 63 0
-62 -462 22 0
62 -462 -22 0
62 462 -63 0
63 463 -64 0
63 -463 -67 0
-63 -463 67 0
-63 463 64 0
64 464 -65 0
64 -464 -66 0
-64 -464 66 0
-64 464 65 0
65 465 -482 0
65 -465 -483 0
-65 -465 483 0
-65 465 482 0
66 465 -484 0
66 -465 -485 0
-66 -465 485 0
-66 465 484 0
67 -464 -52 0
67 464 -68 0
-67 464 68 0
-67 -464 52 0
68 465 -486 0
68 -465 -487 0
-68 -465 487 0
-68 465 486 0
-69 -461 -462 0
-69 461 70 0
-69 -461 59 0
69 461 -70 0
69 -461 462 -59 0
-70 462 71 0
-70 -462 56 0
70 -462 -56 0
70 462 -71 0
71 463 -72 0
71 -463 -75 0
-71 -463 75 0
-71 463 72 0
72 464 -73 0
72 -464 -74 0
-72 -464 74 0
-72 464 73 0
73 465 -481 0
73 -465 -482 0
-73 -465 482 0
-73 465 481 0
74 465 -483 0
74 -465 -484 0
-74 -465 484 0
-74 465 483 0
75 -464 -46 0
75 464 -76 0
-75 464 76 0
-75 -464 46 0
76 465 -485 0
76 -465 -486 0
-76 -465 486 0
-76 465 485 0
77 462 9 -78 0
77 -462 9 -31 0
-77 -9 0
-77 -462 31 0
-77 462 78 0
78 -463 -45 0
78 463 -79 0
-78 463 79 0
-78 -463 45 0
79 464 -74 0
79 -464 -76 0
-79 -464 76 0
-79 464 74 0
-80 81 85 0
80 -81 0
80 -85 0
81 9 -82 0
-81 -9 0
-81 82 0
82 462 -83 0
82 -462 -84 0
-82 -462 84 0
-82 462 83 0
83 -463 -23 0
83 463 -67 0
-83 463 67 0
-83 -463 23 0
84 463 -26 0
-84 -463 0
-84 26 0
85 9 -86 0
85 9 -89 0
-85 -9 0
-85 86 89 0
86 -462 -38 0
86 462 -87 0
-86 462 87 0
-86 -462 38 0
87 -463 -51 0
87 463 -88 0
-87 463 88 0
-87 -463 51 0
88 464 -66 0
88 -464 -68 0
-88 -464 68 0
-88 464 66 0
89 462 -90 0
89 -462 -91 0
-89 -462 91 0
-89 462 90 0
90 -463 -57 0
90 463 -75 0
-90 463 75 0
-90 -463 57 0
91 463 -58 0
91 -463 -92 0
-91 -463 92 0
-91 463 58 0
92 464 465 -497 0
-92 497 0
-92 -465 0
-92 -464 0
-93 94 125 141 150 0
93 -94 0
93 -150 0
93 -141 0
93 -125 0
94 461 10 -97 0
94 -461 10 -95 0
-94 -10 0
-94 -461 95 0
-94 461 97 0
95 -462 -22 0
95 462 -96 0
95 -462 -31 0
-95 462 96 0
-95 -462 22 31 0
-96 63 78 0
96 -63 0
96 -78 0
97 462 -118 0
97 -462 -98 0
97 462 -111 0
-97 -462 98 0
-97 462 111 118 0
-98 -463 99 109 0
-98 463 99 106 0
98 -99 0
98 -463 -109 0
98 463 -106 0
99 463 -100 0
99 -463 -103 0
-99 -463 103 0
-99 463 100 0
100 464 -101 0
100 -464 -102 0
-100 -464 102 0
-100 464 101 0
101 465 -474 0
101 -465 -475 0
-101 -465 475 0
-101 465 474 0
102 465 -476 0
102 -465 -477 0
-102 -465 477 0
-102 465 476 0
103 464 -104 0
103 -464 -105 0
-103 -464 105 0
-103 464 104 0
104 465 -478 0
104 -465 -479 0
-104 -465 479 0
-104 465 478 0
105 465 -480 0
105 -465 -481 0
-105 -465 481 0
-105 465 480 0
106 464 -107 0
106 -464 -108 0
-106 -464 108 0
-106 464 107 0
107 465 -475 0
107 -465 -476 0
-107 -465 476 0
-107 465 475 0
108 465 -477 0
108 -465 -478 0
-108 -465 478 0
-108 465 477 0
109 -464 -73 0
109 464 -110 0
-109 464 110 0
-109 -464 73 0
110 465 -479 0
110 -465 -480 0
-110 -465 480 0
-110 465 479 0
111 463 -112 0
111 -463 -115 0
-111 -463 115 0
-111 463 112 0
112 464 -113 0
112 -464 -114 0
-112 -464 114 0
-112 464 113 0
113 465 -466 0
113 -465 -467 0
-113 -465 467 0
-113 465 466 0
114 465 -468 0
114 -465 -469 0
-114 -465 469 0
-114 465 468 0
115 464 -116 0
115 -464 -117 0
-115 -464 117 0
-115 464 116 0
116 465 -470 0
116 -465 -471 0
-116 -465 471 0
-116 465 470 0
117 465 -472 0
117 -465 -473 0
-117 -465 473 0
-117 465 472 0
118 463 -119 0
118 -463 -122 0
-118 -463 122 0
-118 463 119 0
119 464 -120 0
119 -464 -121 0
-119 -464 121 0
-119 464 120 0
120 465 -467 0
120 -465 -468 0
-120 -465 468 0
-120 465 467 0
121 465 -469 0
121 -465 -470 0
-121 -465 470 0
-121 465 469 0
122 464 -123 0
122 -464 -124 0
-122 -464 124 0
-122 464 123 0
123 465 -471 0
123 -465 -472 0
-123 -465 472 0
-123 465 471 0
124 465 -473 0
124 -465 -474 0
-124 -465 474 0
-124 465 473 0
-125 -10 0
-125 126 134 0
125 10 -134 0
125 10 -126 0
-126 -461 86 0
-126 461 127 0
126 -461 -86 0
126 461 -127 0
-127 462 128 0
-127 -462 131 0
127 -462 -131 0
127 462 -128 0
-128 463 129 0
-128 -463 130 0
128 -463 -130 0
128 463 -129 0
-129 -464 116 0
-129 464 114 0
129 464 -114 0
129 -464 -116 0
130 -464 -101 0
130 464 -117 0
-130 464 117 0
-130 -464 101 0
131 463 -132 0
131 -463 -133 0
-131 -463 133 0
-131 463 132 0
132 464 -102 0
132 -464 -104 0
-132 -464 104 0
-132 464 102 0
133 -464 -65 0
133 464 -105 0
-133 464 105 0
-133 -464 65 0
-134 -461 89 0
-134 461 135 0
134 -461 -89 0
134 461 -135 0
-135 462 136 0
-135 -462 139 0
135 -462 -139 0
135 462 -136 0
-136 463 137 0
-136 -463 138 0
136 -463 -138 0
136 463 -137 0
-137 -464 123 0
-137 464 121 0
137 464 -121 0
137 -464 -123 0
138 -464 -107 0
138 464 -124 0
-138 464 124 0
-138 -464 107 0
139 -463 -72 0
139 463 -140 0
-139 463 140 0
-139 -463 72 0
140 464 -108 0
140 -464 -110 0
-140 -464 110 0
-140 464 108 0
-141 142 146 0
141 -142 0
141 -146 0
142 461 10 -143 0
142 -461 10 -43 0
-142 -10 0
-142 461 143 0
-142 -461 43 0
-143 462 144 0
-143 -462 145 0
143 -462 -145 0
143 462 -144 0
-144 463 122 0
-144 -463 106 0
144 -463 -106 0
144 463 -122 0
145 -463 -79 0
145 463 -109 0
-145 463 109 0
-145 -463 79 0
146 461 10 -147 0
146 -461 10 -82 0
-146 -10 0
-146 461 147 0
-146 -461 82 0
-147 462 148 0
-147 -462 149 0
147 -462 -149 0
147 462 -148 0
-148 463 115 0
-148 -463 100 0
148 -463 -100 0
148 463 -115 0
149 -463 -64 0
149 463 -103 0
-149 463 103 0
-149 -463 64 0
-150 151 162 171 0
150 -151 0
150 -162 0
150 -171 0
-151 152 156 0
151 -152 0
151 -156 0
152 -461 10 -155 0
152 461 10 -153 0
-152 -10 0
-152 -461 155 0
-152 461 153 0
153 -462 -50 0
153 462 -154 0
-153 462 154 0
-153 -462 50 0
154 -463 -88 0
154 463 -133 0
-154 463 133 0
-154 -463 88 0
155 462 -53 0
-155 -462 0
-155 53 0
156 461 10 -157 0
156 -461 10 -159 0
-156 -10 0
-156 -461 159 0
-156 461 157 0
157 -462 -44 0
157 462 -158 0
157 -462 -83 0
-157 462 158 0
-157 -462 44 83 0
-158 145 149 0
158 -145 0
158 -149 0
-159 160 161 0
159 -160 0
159 -161 0
160 462 -84 0
-160 -462 0
-160 84 0
161 462 -48 0
-161 -462 0
-161 48 0
-162 163 166 169 0
162 -163 0
162 -169 0
162 -166 0
163 461 10 -164 0
163 -461 10 -165 0
-163 -10 0
-163 -461 165 0
-163 461 164 0
164 462 -98 0
164 -462 -96 0
-164 -462 96 0
-164 462 98 0
-165 21 30 0
165 -21 0
165 -30 0
166 -461 10 -168 0
166 461 10 -167 0
-166 -10 0
-166 -461 168 0
-166 461 167 0
167 -462 -90 0
167 462 -139 0
-167 462 139 0
-167 -462 90 0
168 462 -91 0
-168 -462 0
-168 91 0
169 461 10 -170 0
169 -461 10 -37 0
-169 -10 0
-169 -461 37 0
-169 461 170 0
170 -462 -87 0
170 462 -131 0
-170 462 131 0
-170 -462 87 0
-171 -10 0
-171 172 175 0
171 10 -175 0
171 10 -172 0
-172 -461 49 0
-172 461 173 0
172 -461 -49 0
172 461 -173 0
-173 -462 154 0
-173 462 174 0
173 -462 -154 0
173 462 -174 0
-174 -463 132 0
-174 463 130 0
174 463 -130 0
174 -463 -132 0
-175 -461 55 0
-175 461 176 0
175 -461 -55 0
175 461 -176 0
-176 -462 71 0
-176 462 177 0
176 -462 -71 0
176 462 -177 0
-177 -463 140 0
-177 463 138 0
177 463 -138 0
177 -463 -140 0
178 9 -168 0
-178 -9 0
-178 168 0
179 9 -160 0
-179 -9 0
-179 160 0
180 181 -182 0
180 -181 -205 0
-180 -181 205 0
-180 181 182 0
181 9 -155 0
-181 -9 0
-181 155 0
182 183 -197 0
-182 -183 0
-182 197 0
-183 493 184 0
183 -493 0
183 -184 0
-184 185 191 192 195 0
184 -195 0
184 -185 0
184 -192 0
184 -191 0
-185 483 487 186 187 0
185 -483 0
185 -187 0
185 -186 0
185 -487 0
-186 470 471 476 490 0
186 -490 0
186 -476 0
186 -470 0
186 -471 0
-187 482 188 189 190 0
187 -482 0
187 -190 0
187 -189 0
187 -188 0
-188 484 485 486 0
188 -484 0
188 -486 0
188 -485 0
-189 474 475 0
189 -474 0
189 -475 0
-190 478 479 0
190 -478 0
190 -479 0
-191 468 469 0
191 -468 0
191 -469 0
-192 472 473 193 194 0
192 -472 0
192 -194 0
192 -193 0
192 -473 0
-193 466 467 0
193 -466 0
193 -467 0
-194 491 492 0
194 -491 0
194 -492 0
-195 477 480 481 196 0
195 -196 0
195 -481 0
195 -477 0
195 -480 0
-196 488 489 0
196 -488 0
196 -489 0
197 494 -198 0
-197 -494 0
-197 198 0
198 495 -199 0
198 -495 -202 0
-198 -495 202 0
-198 495 199 0
199 496 -200 0
199 -496 -201 0
-199 -496 201 0
-199 496 200 0
200 -459 -497 0
200 -458 497 0
-200 458 497 0
-200 459 -497 0
-201 460 497 0
-201 461 -497 0
201 -461 -497 0
201 -460 497 0
202 496 -203 0
202 -496 -204 0
-202 -496 204 0
-202 496 203 0
203 -463 -497 0
203 -462 497 0
-203 462 497 0
-203 463 -497 0
-204 464 497 0
-204 465 -497 0
204 -465 -497 0
204 -464 497 0
205 183 -206 0
-205 -183 0
-205 206 0
206 494 -207 0
-206 -494 0
-206 207 0
207 495 -208 0
207 -495 -209 0
-207 -495 209 0
-207 495 208 0
208 -496 -203 0
208 496 -201 0
-208 496 201 0
-208 -496 203 0
209 496 -204 0
-209 -496 0
-209 204 0
210 179 -211 0
210 -179 -230 0
-210 -179 230 0
-210 179 211 0
211 183 -212 -227 0
211 183 212 -213 0
-211 -183 0
-211 -212 227 0
-211 212 213 0
212 9 -161 0
-212 -9 0
-212 161 0
213 494 -214 0
213 -494 -221 0
-213 -494 221 0
-213 494 214 0
214 495 -215 0
214 -495 -218 0
-214 -495 218 0
-214 495 215 0
215 496 -216 0
215 -496 -217 0
-215 -496 217 0
-215 496 216 0
216 -452 -497 0
216 -451 497 0
-216 451 497 0
-216 452 -497 0
217 -454 -497 0
217 -453 497 0
-217 453 497 0
-217 454 -497 0
218 496 -219 0
218 -496 -220 0
-218 -496 220 0
-218 496 219 0
219 -456 -497 0
219 -455 497 0
-219 455 497 0
-219 456 -497 0
220 -458 -497 0
220 -457 497 0
-220 457 497 0
-220 458 -497 0
221 495 -222 0
221 -495 -225 0
-221 -495 225 0
-221 495 222 0
222 496 -223 0
222 -496 -224 0
-222 -496 224 0
-222 496 223 0
223 -460 -497 0
223 -459 497 0
-223 459 497 0
-223 460 -497 0
224 -462 -497 0
224 -461 497 0
-224 461 497 0
-224 462 -497 0
225 496 -226 0
225 -465 -496 497 0
-225 496 226 0
-225 -496 -497 0
-225 465 -496 0
226 -464 -497 0
226 -463 497 0
-226 463 497 0
-226 464 -497 0
227 494 -228 0
227 -494 -229 0
-227 -494 229 0
-227 494 228 0
228 495 -218 0
228 -495 -222 0
-228 -495 222 0
-228 495 218 0
229 495 -225 0
-229 -495 0
-229 225 0
230 183 -212 -232 0
230 183 212 -231 0
-230 -183 0
-230 -212 232 0
-230 212 231 0
231 494 -221 0
-231 -494 0
-231 221 0
232 494 -229 0
-232 -494 0
-232 229 0
-233 234 236 237 240 0
233 -240 0
233 -234 0
233 -237 0
233 -236 0
-234 471 142 171 235 0
234 -471 0
234 -235 0
234 -171 0
234 -142 0
-235 472 473 0
235 -472 0
235 -473 0
-236 491 492 29 0
236 -491 0
236 -29 0
236 -492 0
-237 238 239 0
237 -238 0
237 -239 0
-238 477 166 0
238 -477 0
238 -166 0
-239 478 479 156 0
239 -478 0
239 -156 0
239 -479 0
-240 241 242 243 246 0
240 -246 0
240 -241 0
240 -243 0
240 -242 0
-241 476 169 0
241 -476 0
241 -169 0
-242 493 178 0
242 -493 0
242 -178 0
-243 244 245 0
243 -244 0
243 -245 0
-244 483 77 0
244 -483 0
244 -77 0
-245 481 482 61 0
245 -61 0
245 -482 0
245 -481 0
-246 247 251 254 257 0
246 -257 0
246 -247 0
246 -254 0
246 -251 0
-247 248 249 250 0
247 -248 0
247 -249 0
247 -250 0
-248 466 467 94 0
248 -466 0
248 -94 0
248 -467 0
-249 468 469 125 0
249 -125 0
249 -469 0
249 -468 0
-250 470 146 0
250 -470 0
250 -146 0
-251 252 253 0
251 -252 0
251 -253 0
-252 480 152 0
252 -480 0
252 -152 0
-253 490 8 0
253 -490 0
253 -8 0
-254 255 256 0
254 -255 0
254 -256 0
-255 487 488 489 41 0
255 -41 0
255 -489 0
255 -487 0
255 -488 0
-256 484 485 486 80 0
256 -80 0
256 -486 0
256 -484 0
256 -485 0
-257 474 475 163 0
257 -474 0
257 -163 0
257 -475 0
258 -214 259 0
258 -259 -260 0
-258 214 259 0
-258 -259 260 0
-259 494 179 0
259 -494 0
259 -179 0
260 -225 -261 0
260 -222 261 0
-260 225 -261 0
-260 222 261 0
-261 495 212 0
261 -495 0
261 -212 0
262 263 -285 286 0
262 263 -270 286 0
-262 -263 0
-262 -286 0
-262 270 285 0
-263 248 249 264 266 0
263 -266 0
263 -248 0
263 -264 0
263 -249 0
-264 234 239 250 265 0
264 -265 0
264 -234 0
264 -250 0
264 -239 0
-265 244 252 0
265 -244 0
265 -252 0
-266 253 255 267 268 0
266 -268 0
266 -253 0
266 -267 0
266 -255 0
-267 236 245 0
267 -236 0
267 -245 0
-268 238 256 269 0
268 -238 0
268 -256 0
268 -269 0
-269 241 257 0
269 -241 0
269 -257 0
270 242 -259 -278 0
270 242 259 -271 0
-270 -242 0
-270 259 271 0
-270 -259 278 0
-271 -261 275 0
-271 261 272 274 0
271 261 -272 0
271 -261 -275 0
271 261 -274 0
272 -437 497 -273 0
272 -438 -497 -273 0
-272 273 0
-272 437 497 0
-272 438 -497 0
-273 496 181 0
273 -496 0
273 -181 0
274 -435 496 497 0
274 -436 496 -497 0
-274 -496 0
-274 436 -497 0
-274 435 497 0
275 496 -276 0
275 -496 -277 0
-275 -496 277 0
-275 496 276 0
276 -440 -497 0
276 -439 497 0
-276 439 497 0
-276 440 -497 0
277 -442 -497 0
277 -441 497 0
-277 441 497 0
-277 442 -497 0
278 495 -279 0
278 -495 -282 0
-278 -495 282 0
-278 495 279 0
279 496 -280 0
279 -496 -281 0
-279 -496 281 0
-279 496 280 0
280 -444 -497 0
280 -443 497 0
-280 443 497 0
-280 444 -497 0
281 -446 -497 0
281 -445 497 0
-281 445 497 0
-281 446 -497 0
282 496 -283 0
282 -496 -284 0
-282 -496 284 0
-282 496 283 0
283 -448 -497 0
283 -447 497 0
-283 447 497 0
-283 448 -497 0
284 -450 -497 0
284 -449 497 0
-284 449 497 0
-284 450 -497 0
285 -242 -258 0
-285 242 0
-285 258 0
286 -178 -210 299 0
286 178 -287 299 0
-286 -299 0
-286 -178 210 0
-286 178 287 0
287 179 -288 0
287 -179 -294 0
-287 -179 294 0
-287 179 288 0
288 184 -212 -290 0
288 184 212 -289 0
-288 -184 0
-288 -212 290 0
-288 212 289 0
-289 493 270 0
-289 213 270 0
289 -270 0
289 -493 -213 0
-290 -493 227 0
-290 493 291 0
290 -493 -227 0
290 493 -291 0
-291 494 292 0
-291 -494 293 0
291 -494 -293 0
291 494 -292 0
-292 -495 279 0
-292 495 275 0
292 495 -275 0
292 -495 -279 0
293 -495 -215 0
293 495 -282 0
-293 495 282 0
-293 -495 215 0
294 212 -295 0
294 -212 -297 0
-294 -212 297 0
-294 212 295 0
295 493 184 -296 0
295 -493 184 -231 0
-295 -184 0
-295 -493 231 0
-295 493 296 0
296 -494 -214 0
296 494 -278 0
-296 494 278 0
-296 -494 214 0
297 493 184 -298 0
297 -493 184 -232 0
-297 -184 0
-297 -493 232 0
-297 493 298 0
298 -494 -228 0
298 494 -293 0
-298 494 293 0
-298 -494 228 0
-299 162 171 300 301 0
299 -301 0
299 -162 0
299 -300 0
299 -171 0
-300 42 81 141 151 0
300 -42 0
300 -151 0
300 -141 0
300 -81 0
-301 61 77 85 302 0
301 -302 0
301 -85 0
301 -61 0
301 -77 0
-302 7 54 0
302 -7 0
302 -54 0
-303 304 358 0
-303 233 304 -361 0
303 -304 0
303 -358 361 0
303 -233 -358 0
304 -305 357 0
304 -305 -351 0
304 -305 -354 0
-304 305 0
-304 351 354 -357 0
305 6 -178 -349 0
305 6 178 -306 0
-305 -6 0
-305 -178 349 0
-305 178 306 0
306 -179 -307 0
306 179 -325 341 0
-306 179 -341 0
-306 -179 307 0
-306 179 325 0
307 212 -308 0
307 -212 -321 0
-307 -212 321 0
-307 212 308 0
308 181 -309 0
308 -181 183 -317 0
-308 -181 317 0
-308 181 309 0
-308 -181 -183 0
309 183 -310 0
-309 -183 0
-309 310 0
310 -494 -207 0
310 494 -311 0
-310 494 311 0
-310 -494 207 0
311 495 -312 0
311 -495 -315 0
-311 -495 315 0
-311 495 312 0
312 496 -313 0
312 -496 -314 0
-312 -496 314 0
-312 496 313 0
313 -453 -497 0
313 -452 497 0
-313 452 497 0
-313 453 -497 0
314 -455 -497 0
314 -454 497 0
-314 454 497 0
-314 455 -497 0
315 -496 -200 0
315 496 -316 0
-315 496 316 0
-315 -496 200 0
316 -457 -497 0
316 -456 497 0
-316 456 497 0
-316 457 -497 0
317 494 -318 0
317 -494 -320 0
-317 -494 320 0
-317 494 318 0
318 -495 -199 0
318 495 -319 0
-318 495 319 0
-318 -495 199 0
319 496 -314 0
319 -496 -316 0
-319 -496 316 0
-319 496 314 0
320 495 -202 0
-320 -495 0
-320 202 0
321 -181 -182 0
321 181 183 -322 0
-321 -181 182 0
-321 181 -183 0
-321 181 322 0
322 494 -323 0
322 -494 -324 0
-322 -494 324 0
-322 494 323 0
323 -495 -208 0
323 495 -315 0
-323 495 315 0
-323 -495 208 0
324 495 -209 0
-324 -495 0
-324 209 0
-325 -181 212 335 0
-325 181 212 326 0
325 -212 0
325 -181 -335 0
325 181 -326 0
326 493 184 -327 0
326 -493 184 -206 0
-326 -184 0
-326 -493 206 0
-326 493 327 0
327 -494 -311 0
327 494 -328 0
-327 494 328 0
-327 -494 311 0
328 495 -329 0
328 -495 -332 0
-328 -495 332 0
-328 495 329 0
329 496 -330 0
329 -496 -331 0
-329 -496 331 0
-329 496 330 0
330 -445 -497 0
330 -444 497 0
-330 444 497 0
-330 445 -497 0
331 -447 -497 0
331 -446 497 0
-331 446 497 0
-331 447 -497 0
332 496 -333 0
332 -496 -334 0
-332 -496 334 0
-332 496 333 0
333 -449 -497 0
333 -448 497 0
-333 448 497 0
-333 449 -497 0
334 -451 -497 0
334 -450 497 0
-334 450 497 0
-334 451 -497 0
335 -493 184 -340 0
335 493 184 -336 0
-335 -184 0
-335 -493 340 0
-335 493 336 0
336 -494 -318 0
336 494 -337 0
-336 494 337 0
-336 -494 318 0
337 495 -338 0
337 -495 -339 0
-337 -495 339 0
-337 495 338 0
338 496 -331 0
338 -496 -333 0
-338 -496 333 0
-338 496 331 0
339 -496 -313 0
339 496 -334 0
-339 496 334 0
-339 -496 313 0
340 494 -320 0
-340 -494 0
-340 320 0
341 181 -212 342 0
341 -181 -212 346 0
-341 212 0
-341 -181 -346 0
-341 181 -342 0
342 -493 184 -345 0
342 493 184 -343 0
-342 -184 0
-342 -493 345 0
-342 493 343 0
343 -494 -323 0
343 494 -344 0
-343 494 344 0
-343 -494 323 0
344 -495 -312 0
344 495 -332 0
-344 495 332 0
-344 -495 312 0
345 494 -324 0
-345 -494 0
-345 324 0
346 183 -347 0
-346 -183 0
-346 347 0
347 -494 -198 0
347 494 -348 0
-347 494 348 0
-347 -494 198 0
348 -495 -319 0
348 495 -339 0
-348 495 339 0
-348 -495 319 0
349 179 212 -350 0
-349 350 0
-349 -212 0
-349 -179 0
350 181 -205 0
350 -181 183 -340 0
-350 -181 340 0
-350 181 205 0
-350 -181 -183 0
-351 247 254 269 352 0
351 -352 0
351 -247 0
351 -269 0
351 -254 0
-352 234 238 244 353 0
352 -353 0
352 -234 0
352 -244 0
352 -238 0
-353 239 251 0
353 -239 0
353 -251 0
-354 242 267 0
-354 259 267 -355 0
354 -267 0
354 -242 -259 0
354 -242 355 0
355 -208 261 0
355 -261 -356 0
-355 208 261 0
-355 -261 356 0
356 -204 273 0
-356 204 0
-356 -273 0
357 -242 259 0
357 -259 -311 0
357 259 -328 0
-357 -259 311 0
-357 242 259 328 0
358 -179 5 -360 0
358 179 5 -359 0
-358 -5 0
-358 -179 360 0
-358 179 359 0
359 212 -321 0
359 -212 -350 0
-359 -212 350 0
-359 212 321 0
360 181 183 -345 0
-360 345 0
-360 -183 0
-360 -181 0
361 259 -323 0
361 -259 261 -356 0
-361 259 323 0
-361 -259 -261 0
-361 -259 356 0
362 263 -371 378 0
362 263 -363 378 0
-362 -263 0
-362 -378 0
-362 363 371 0
363 493 -494 -368 0
363 493 494 -364 0
-363 -493 0
-363 -494 368 0
-363 494 364 0
-364 495 365 0
-364 -495 367 0
364 -495 -367 0
364 495 -365 0
-365 -496 276 0
-365 496 366 0
365 496 -366 0
365 -496 -276 0
366 -438 -497 0
366 -437 497 0
-366 437 497 0
-366 438 -497 0
367 496 -277 0
367 -496 -280 0
-367 -496 280 0
-367 496 277 0
368 495 -369 0
368 -495 -370 0
-368 -495 370 0
-368 495 369 0
369 496 -281 0
369 -496 -283 0
-369 -496 283 0
-369 496 281 0
370 -496 -216 0
370 496 -284 0
-370 496 284 0
-370 -496 216 0
371 -242 -259 -375 0
371 -242 259 -372 0
-371 242 0
-371 259 372 0
-371 -259 375 0
372 495 -373 0
372 -495 -374 0
-372 -495 374 0
-372 495 373 0
373 496 -217 0
373 -496 -219 0
-373 -496 219 0
-373 496 217 0
374 496 -220 0
374 -496 -223 0
-374 -496 223 0
-374 496 220 0
375 261 -376 0
375 -261 -377 0
-375 -261 377 0
-375 261 376 0
376 496 -224 0
376 -496 -226 0
-376 -496 226 0
-376 496 224 0
377 -465 496 497 0
-377 465 0
-377 -497 0
-377 -496 0
378 -178 299 -397 0
378 178 299 -379 0
-378 -299 0
-378 -178 397 0
-378 178 379 0
379 179 -380 0
379 -179 -391 0
-379 -179 391 0
-379 179 380 0
380 184 -212 -384 0
380 184 212 -381 0
-380 -184 0
-380 -212 384 0
-380 212 381 0
-381 363 382 0
-381 493 363 0
381 -363 0
381 -493 -382 0
382 494 -372 0
382 -494 -383 0
-382 -494 383 0
-382 494 372 0
383 495 -376 0
383 -495 -377 0
-383 -495 377 0
-383 495 376 0
-384 493 385 0
-384 -493 388 0
384 -493 -388 0
384 493 -385 0
-385 494 386 0
-385 -494 387 0
385 -494 -387 0
385 494 -386 0
-386 -495 369 0
-386 495 367 0
386 495 -367 0
386 -495 -369 0
387 495 -370 0
387 -495 -373 0
-387 -495 373 0
-387 495 370 0
388 494 -389 0
388 -494 -390 0
-388 -494 390 0
-388 494 389 0
389 495 -374 0
389 -495 -376 0
-389 -495 376 0
-389 495 374 0
390 495 -377 0
-390 -495 0
-390 377 0
391 212 -392 0
391 -212 -395 396 0
-391 -212 395 0
-391 212 392 0
-391 -212 -396 0
392 -493 184 -394 0
392 493 184 -393 0
-392 -184 0
-392 -493 394 0
-392 493 393 0
393 494 -368 0
393 -494 -372 0
-393 -494 372 0
-393 494 368 0
394 494 -383 0
-394 -494 0
-394 383 0
-395 493 -494 389 0
-395 493 494 387 0
395 -493 0
395 -494 -389 0
395 494 -387 0
-396 493 184 0
-396 494 184 -390 0
396 -184 0
396 -493 390 0
396 -493 -494 0
397 179 -398 0
397 -179 212 -399 0
-397 -179 -212 0
-397 179 398 0
-397 -179 399 0
398 183 -212 -388 0
398 183 212 -382 0
-398 -183 0
-398 -212 388 0
-398 212 382 0
399 183 -394 0
-399 -183 0
-399 394 0
400 -5 -402 0
400 178 401 -402 0
-400 402 0
-400 5 -401 0
-400 -178 5 0
401 -179 -211 0
401 179 -294 0
-401 179 294 0
-401 -179 211 0
402 -242 403 405 0
402 -296 403 405 0
-402 -405 0
-402 -403 0
-402 242 296 0
-403 243 247 353 404 0
403 -353 0
403 -404 0
403 -243 0
403 -247 0
404 -242 260 0
404 -242 -259 0
-404 242 0
-404 259 -260 0
-405 234 236 255 268 0
405 -268 0
405 -234 0
405 -255 0
405 -236 0
406 263 -407 0
406 263 -418 0
-406 -263 0
-406 407 418 0
407 242 -259 -415 0
407 242 259 -408 0
-407 -242 0
-407 259 408 0
-407 -259 415 0
-408 409 412 0
408 -409 0
408 -412 0
409 261 273 -411 0
409 261 -273 -410 0
-409 -261 0
-409 273 411 0
-409 -273 410 0
410 -437 -497 0
410 -436 497 0
-410 436 497 0
-410 437 -497 0
411 -435 -497 0
411 -434 497 0
-411 434 497 0
-411 435 -497 0
412 -496 -261 -414 0
412 496 -261 -413 0
-412 261 0
-412 -496 414 0
-412 496 413 0
413 -439 -497 0
413 -438 497 0
-413 438 497 0
-413 439 -497 0
414 -441 -497 0
414 -440 497 0
-414 440 497 0
-414 441 -497 0
415 -495 -338 0
415 495 -416 0
-415 495 416 0
-415 -495 338 0
416 -496 -330 0
416 496 -417 0
-416 496 417 0
-416 -496 330 0
417 -443 -497 0
417 -442 497 0
-417 442 497 0
-417 443 -497 0
418 -242 -259 -419 0
418 -242 259 -348 0
-418 242 0
-418 259 348 0
-418 -259 419 0
419 -199 261 0
419 -261 -420 0
-419 199 261 0
-419 -261 420 0
420 496 -181 0
420 -496 -204 0
420 496 -203 0
-420 -496 204 0
-420 496 181 203 0
421 -178 299 -432 0
421 178 299 -422 0
-421 -299 0
-421 -178 432 0
-421 178 422 0
422 179 -423 0
422 -179 -429 0
-422 -179 429 0
-422 179 423 0
423 181 184 -424 0
423 -181 184 -425 0
-423 -184 0
-423 -181 425 0
-423 181 424 0
-424 493 407 0
-424 347 407 0
424 -407 0
424 -493 -347 0
-425 -493 310 0
-425 493 426 0
425 -493 -310 0
425 493 -426 0
-426 -494 328 0
-426 494 427 428 0
426 -494 -328 0
426 494 -428 0
426 494 -427 0
427 495 -496 -413 0
427 495 496 -410 0
-427 -495 0
-427 -496 413 0
-427 496 410 0
428 -495 -496 -417 0
428 -495 496 -414 0
-428 495 0
-428 -496 417 0
-428 496 414 0
429 -181 -326 0
429 181 -430 0
-429 181 430 0
-429 -181 326 0
430 493 184 -431 0
430 -493 184 -197 0
-430 -184 0
-430 -493 197 0
-430 493 431 0
431 -494 -348 0
431 494 -415 0
-431 494 415 0
-431 -494 348 0
432 -179 -180 0
432 179 -433 0
-432 179 433 0
-432 -179 180 0
433 -181 -309 0
433 181 -346 0
-433 181 346 0
-433 -181 309 0
-498 0
2 0

